PROBLEM NAME: eil51_n5
KNAPSACK DATA TYPE: uncorrelated
DIMENSION: 5
NUMBER OF ITEMS: 4
CAPACITY OF KNAPSACK: 485
MIN SPEED: 0.1
MAX SPEED: 1
RENTING RATIO: 1.61
EDGE_WEIGHT_TYPE: CEIL_2D
NODE_COORD_SECTION	(INDEX, X, Y):
1	31	32
2	36	16
3	62	63
4	5	6
5	30	15
ITEMS SECTION	(INDEX, PROFIT, WEIGHT, ASSIGNED NODE NUMBER):
1	992	421	3
2	506	326	2
3	416	248	5
4	94	485	4
